; benchmark generated from python API
(set-info :status unknown)
(declare-fun S_5 () Real)
(declare-fun L_1 () Real)
(declare-fun A_1 () Real)
(declare-fun A_2 () Real)
(declare-fun A_5 () Real)
(declare-fun Q_5 () Real)
(declare-fun A_4 () Real)
(declare-fun A_3 () Real)
(declare-fun A_0 () Real)
(declare-fun S_4 () Real)
(declare-fun S_3 () Real)
(declare-fun S_2 () Real)
(declare-fun S_1 () Real)
(declare-fun S_0 () Real)
(declare-fun L_0 () Real)
(declare-fun a () Real)
(assert
 (exists ((I_0 Real) (I_1 Real) (I_2 Real) (I_3 Real) (I_4 Real) (I_5 Real) (L_2 Real) (L_3 Real) (L_4 Real) (L_5 Real) (C Real) (B Real) )(let ((?x100 (- A_1 L_1)))
 (let (($x148 (<= ?x100 S_5)))
 (let (($x146 (>= A_5 A_4)))
 (let (($x145 (>= A_4 A_3)))
 (let (($x144 (>= A_3 A_2)))
 (let (($x143 (>= A_2 A_1)))
 (let (($x142 (>= A_1 A_0)))
 (let (($x140 (>= S_5 S_4)))
 (let (($x137 (>= S_4 S_3)))
 (let (($x134 (>= S_3 S_2)))
 (let (($x131 (>= S_2 S_1)))
 (let (($x128 (>= S_1 S_0)))
 (let ((?x166 (- A_5 L_5)))
 (let ((?x180 (* C 1.0)))
 (let ((?x183 (+ I_4 ?x180)))
 (let (($x191 (= I_4 (ite (< (+ I_3 ?x180) (- A_4 L_4)) (+ I_3 ?x180) (- A_4 L_4)))))
 (let (($x196 (= I_3 (ite (< (+ I_2 ?x180) (- A_3 L_3)) (+ I_2 ?x180) (- A_3 L_3)))))
 (let (($x200 (= I_2 (ite (< (+ I_1 ?x180) (- A_2 L_2)) (+ I_1 ?x180) (- A_2 L_2)))))
 (let (($x205 (= L_5 L_4)))
 (let (($x210 (=> (not (> (- (- A_5 L_4) I_5) B)) $x205)))
 (let (($x208 (> (- (- A_5 L_4) I_5) B)))
 (let (($x214 (=> $x208 (= L_5 (- (- A_5 I_5) B)))))
 (let (($x215 (= L_4 L_3)))
 (let (($x220 (=> (not (> (- (- A_4 L_3) I_4) B)) $x215)))
 (let (($x218 (> (- (- A_4 L_3) I_4) B)))
 (let (($x224 (=> $x218 (= L_4 (- (- A_4 I_4) B)))))
 (let (($x225 (= L_3 L_2)))
 (let (($x230 (=> (not (> (- (- A_3 L_2) I_3) B)) $x225)))
 (let (($x228 (> (- (- A_3 L_2) I_3) B)))
 (let (($x234 (=> $x228 (= L_3 (- (- A_3 I_3) B)))))
 (let (($x235 (= L_2 L_1)))
 (let (($x239 (=> (not (> (- (- A_2 L_1) I_2) B)) $x235)))
 (let (($x237 (> (- (- A_2 L_1) I_2) B)))
 (let (($x243 (=> $x237 (= L_2 (- (- A_2 I_2) B)))))
 (let (($x56 (= L_1 L_0)))
 (let (($x247 (=> (not (> (- (- A_1 L_0) I_1) B)) $x56)))
 (let (($x245 (> (- (- A_1 L_0) I_1) B)))
 (let (($x251 (=> $x245 (= L_1 (- (- A_1 I_1) B)))))
 (let (($x47 (= a 1.0)))
 (let (($x39 (>= L_0 0.0)))
 (and $x39 (<= I_0 (- A_0 L_0)) (>= C (* 5.0 a)) (>= B (* 5.0 a)) $x47 $x251 $x247 $x243 $x239 $x234 $x230 $x224 $x220 $x214 $x210 $x251 $x247 $x243 $x239 $x234 $x230 $x224 $x220 $x214 $x210 (= I_1 (ite (< (+ I_0 ?x180) ?x100) (+ I_0 ?x180) ?x100)) $x200 $x196 $x191 (= I_5 (ite (< ?x183 ?x166) ?x183 ?x166)) (>= S_0 (- I_0 ?x180)) (<= S_0 I_0) (>= S_1 I_0) $x128 (<= S_1 I_1) (>= S_2 I_1) $x131 (<= S_2 I_2) (>= S_3 I_2) $x134 (<= S_3 I_3) (>= S_4 I_3) $x137 (<= S_4 I_4) (>= S_5 I_4) $x140 (<= S_5 I_5) $x142 $x143 $x144 $x145 $x146 (= Q_5 (- ?x166 I_5)) (> (- A_2 L_2) S_5) $x148))))))))))))))))))))))))))))))))))))))))))
 )
(check-sat)
